NAME           C:\Bruker\Hvattum\knapsack\Problems\class1\100-5-09.mps
ROWS
 N  OBJ
 L  CONSTR1
 L  CONSTR2
 L  CONSTR3
 L  CONSTR4
 L  CONSTR5
COLUMNS
    INT0001   'MARKER'  'INTORG'
    X1        OBJ       576
    X1        CONSTR1   181
    X1        CONSTR2   465
    X1        CONSTR3   754
    X1        CONSTR4   521
    X1        CONSTR5   590
    X2        OBJ       585
    X2        CONSTR1   180
    X2        CONSTR2   182
    X2        CONSTR3   560
    X2        CONSTR4   928
    X2        CONSTR5   489
    X3        OBJ       831
    X3        CONSTR1   339
    X3        CONSTR2   469
    X3        CONSTR3   486
    X3        CONSTR4   929
    X3        CONSTR5   320
    X4        OBJ       320
    X4        CONSTR1   135
    X4        CONSTR2   336
    X4        CONSTR3   513
    X4        CONSTR4   244
    X4        CONSTR5   11
    X5        OBJ       872
    X5        CONSTR1   913
    X5        CONSTR2   937
    X5        CONSTR3   846
    X5        CONSTR4   206
    X5        CONSTR5   248
    X6        OBJ       948
    X6        CONSTR1   517
    X6        CONSTR2   91
    X6        CONSTR3   807
    X6        CONSTR4   776
    X6        CONSTR5   748
    X7        OBJ       695
    X7        CONSTR1   819
    X7        CONSTR2   593
    X7        CONSTR3   927
    X7        CONSTR4   188
    X7        CONSTR5   367
    X8        OBJ       836
    X8        CONSTR1   181
    X8        CONSTR2   49
    X8        CONSTR3   577
    X8        CONSTR4   918
    X8        CONSTR5   139
    X9        OBJ       746
    X9        CONSTR1   976
    X9        CONSTR2   74
    X9        CONSTR3   539
    X9        CONSTR4   482
    X9        CONSTR5   73
    X10       OBJ       609
    X10       CONSTR1   488
    X10       CONSTR2   690
    X10       CONSTR3   390
    X10       CONSTR4   545
    X10       CONSTR5   120
    X11       OBJ       1001
    X11       CONSTR1   77
    X11       CONSTR2   918
    X11       CONSTR3   840
    X11       CONSTR4   594
    X11       CONSTR5   978
    X12       OBJ       835
    X12       CONSTR1   342
    X12       CONSTR2   439
    X12       CONSTR3   643
    X12       CONSTR4   47
    X12       CONSTR5   750
    X13       OBJ       927
    X13       CONSTR1   398
    X13       CONSTR2   903
    X13       CONSTR3   808
    X13       CONSTR4   922
    X13       CONSTR5   921
    X14       OBJ       560
    X14       CONSTR1   233
    X14       CONSTR2   884
    X14       CONSTR3   103
    X14       CONSTR4   345
    X14       CONSTR5   660
    X15       OBJ       1101
    X15       CONSTR1   893
    X15       CONSTR2   164
    X15       CONSTR3   859
    X15       CONSTR4   760
    X15       CONSTR5   730
    X16       OBJ       879
    X16       CONSTR1   156
    X16       CONSTR2   756
    X16       CONSTR3   745
    X16       CONSTR4   28
    X16       CONSTR5   934
    X17       OBJ       477
    X17       CONSTR1   313
    X17       CONSTR2   115
    X17       CONSTR3   8
    X17       CONSTR4   815
    X17       CONSTR5   49
    X18       OBJ       697
    X18       CONSTR1   920
    X18       CONSTR2   624
    X18       CONSTR3   614
    X18       CONSTR4   590
    X18       CONSTR5   202
    X19       OBJ       858
    X19       CONSTR1   486
    X19       CONSTR2   146
    X19       CONSTR3   444
    X19       CONSTR4   711
    X19       CONSTR5   291
    X20       OBJ       702
    X20       CONSTR1   583
    X20       CONSTR2   752
    X20       CONSTR3   884
    X20       CONSTR4   47
    X20       CONSTR5   375
    X21       OBJ       447
    X21       CONSTR1   4
    X21       CONSTR2   177
    X21       CONSTR3   89
    X21       CONSTR4   238
    X21       CONSTR5   994
    X22       OBJ       503
    X22       CONSTR1   267
    X22       CONSTR2   889
    X22       CONSTR3   199
    X22       CONSTR4   256
    X22       CONSTR5   876
    X23       OBJ       1071
    X23       CONSTR1   728
    X23       CONSTR2   717
    X23       CONSTR3   513
    X23       CONSTR4   721
    X23       CONSTR5   986
    X24       OBJ       609
    X24       CONSTR1   661
    X24       CONSTR2   356
    X24       CONSTR3   21
    X24       CONSTR4   138
    X24       CONSTR5   340
    X25       OBJ       963
    X25       CONSTR1   447
    X25       CONSTR2   381
    X25       CONSTR3   765
    X25       CONSTR4   6
    X25       CONSTR5   914
    X26       OBJ       618
    X26       CONSTR1   9
    X26       CONSTR2   697
    X26       CONSTR3   304
    X26       CONSTR4   294
    X26       CONSTR5   996
    X27       OBJ       737
    X27       CONSTR1   12
    X27       CONSTR2   975
    X27       CONSTR3   370
    X27       CONSTR4   704
    X27       CONSTR5   544
    X28       OBJ       809
    X28       CONSTR1   173
    X28       CONSTR2   213
    X28       CONSTR3   970
    X28       CONSTR4   730
    X28       CONSTR5   252
    X29       OBJ       522
    X29       CONSTR1   652
    X29       CONSTR2   286
    X29       CONSTR3   708
    X29       CONSTR4   60
    X29       CONSTR5   818
    X30       OBJ       556
    X30       CONSTR1   323
    X30       CONSTR2   828
    X30       CONSTR3   694
    X30       CONSTR4   138
    X30       CONSTR5   373
    X31       OBJ       900
    X31       CONSTR1   761
    X31       CONSTR2   70
    X31       CONSTR3   543
    X31       CONSTR4   594
    X31       CONSTR5   699
    X32       OBJ       751
    X32       CONSTR1   58
    X32       CONSTR2   890
    X32       CONSTR3   283
    X32       CONSTR4   225
    X32       CONSTR5   558
    X33       OBJ       825
    X33       CONSTR1   697
    X33       CONSTR2   370
    X33       CONSTR3   798
    X33       CONSTR4   678
    X33       CONSTR5   200
    X34       OBJ       746
    X34       CONSTR1   651
    X34       CONSTR2   941
    X34       CONSTR3   521
    X34       CONSTR4   828
    X34       CONSTR5   517
    X35       OBJ       919
    X35       CONSTR1   702
    X35       CONSTR2   9
    X35       CONSTR3   334
    X35       CONSTR4   854
    X35       CONSTR5   537
    X36       OBJ       633
    X36       CONSTR1   600
    X36       CONSTR2   5
    X36       CONSTR3   570
    X36       CONSTR4   417
    X36       CONSTR5   257
    X37       OBJ       878
    X37       CONSTR1   281
    X37       CONSTR2   168
    X37       CONSTR3   433
    X37       CONSTR4   777
    X37       CONSTR5   285
    X38       OBJ       670
    X38       CONSTR1   162
    X38       CONSTR2   417
    X38       CONSTR3   550
    X38       CONSTR4   535
    X38       CONSTR5   559
    X39       OBJ       771
    X39       CONSTR1   734
    X39       CONSTR2   387
    X39       CONSTR3   137
    X39       CONSTR4   902
    X39       CONSTR5   716
    X40       OBJ       525
    X40       CONSTR1   208
    X40       CONSTR2   393
    X40       CONSTR3   348
    X40       CONSTR4   393
    X40       CONSTR5   850
    X41       OBJ       861
    X41       CONSTR1   450
    X41       CONSTR2   259
    X41       CONSTR3   151
    X41       CONSTR4   450
    X41       CONSTR5   630
    X42       OBJ       431
    X42       CONSTR1   675
    X42       CONSTR2   101
    X42       CONSTR3   96
    X42       CONSTR4   61
    X42       CONSTR5   218
    X43       OBJ       608
    X43       CONSTR1   282
    X43       CONSTR2   61
    X43       CONSTR3   602
    X43       CONSTR4   554
    X43       CONSTR5   860
    X44       OBJ       946
    X44       CONSTR1   948
    X44       CONSTR2   815
    X44       CONSTR3   995
    X44       CONSTR4   745
    X44       CONSTR5   484
    X45       OBJ       1187
    X45       CONSTR1   884
    X45       CONSTR2   859
    X45       CONSTR3   644
    X45       CONSTR4   695
    X45       CONSTR5   827
    X46       OBJ       631
    X46       CONSTR1   72
    X46       CONSTR2   768
    X46       CONSTR3   862
    X46       CONSTR4   436
    X46       CONSTR5   628
    X47       OBJ       435
    X47       CONSTR1   265
    X47       CONSTR2   21
    X47       CONSTR3   182
    X47       CONSTR4   120
    X47       CONSTR5   615
    X48       OBJ       1217
    X48       CONSTR1   585
    X48       CONSTR2   528
    X48       CONSTR3   839
    X48       CONSTR4   862
    X48       CONSTR5   834
    X49       OBJ       749
    X49       CONSTR1   838
    X49       CONSTR2   292
    X49       CONSTR3   51
    X49       CONSTR4   715
    X49       CONSTR5   906
    X50       OBJ       484
    X50       CONSTR1   536
    X50       CONSTR2   24
    X50       CONSTR3   778
    X50       CONSTR4   469
    X50       CONSTR5   116
    X51       OBJ       596
    X51       CONSTR1   752
    X51       CONSTR2   465
    X51       CONSTR3   186
    X51       CONSTR4   598
    X51       CONSTR5   833
    X52       OBJ       788
    X52       CONSTR1   839
    X52       CONSTR2   161
    X52       CONSTR3   432
    X52       CONSTR4   509
    X52       CONSTR5   220
    X53       OBJ       1052
    X53       CONSTR1   832
    X53       CONSTR2   539
    X53       CONSTR3   798
    X53       CONSTR4   908
    X53       CONSTR5   929
    X54       OBJ       618
    X54       CONSTR1   877
    X54       CONSTR2   990
    X54       CONSTR3   143
    X54       CONSTR4   552
    X54       CONSTR5   530
    X55       OBJ       664
    X55       CONSTR1   90
    X55       CONSTR2   778
    X55       CONSTR3   945
    X55       CONSTR4   403
    X55       CONSTR5   220
    X56       OBJ       875
    X56       CONSTR1   746
    X56       CONSTR2   290
    X56       CONSTR3   171
    X56       CONSTR4   422
    X56       CONSTR5   850
    X57       OBJ       827
    X57       CONSTR1   863
    X57       CONSTR2   556
    X57       CONSTR3   623
    X57       CONSTR4   837
    X57       CONSTR5   333
    X58       OBJ       331
    X58       CONSTR1   463
    X58       CONSTR2   257
    X58       CONSTR3   272
    X58       CONSTR4   18
    X58       CONSTR5   46
    X59       OBJ       467
    X59       CONSTR1   590
    X59       CONSTR2   376
    X59       CONSTR3   328
    X59       CONSTR4   848
    X59       CONSTR5   53
    X60       OBJ       759
    X60       CONSTR1   525
    X60       CONSTR2   694
    X60       CONSTR3   552
    X60       CONSTR4   16
    X60       CONSTR5   219
    X61       OBJ       499
    X61       CONSTR1   253
    X61       CONSTR2   933
    X61       CONSTR3   242
    X61       CONSTR4   145
    X61       CONSTR5   397
    X62       OBJ       590
    X62       CONSTR1   987
    X62       CONSTR2   467
    X62       CONSTR3   368
    X62       CONSTR4   425
    X62       CONSTR5   443
    X63       OBJ       732
    X63       CONSTR1   204
    X63       CONSTR2   937
    X63       CONSTR3   743
    X63       CONSTR4   418
    X63       CONSTR5   940
    X64       OBJ       819
    X64       CONSTR1   716
    X64       CONSTR2   680
    X64       CONSTR3   768
    X64       CONSTR4   398
    X64       CONSTR5   836
    X65       OBJ       724
    X65       CONSTR1   653
    X65       CONSTR2   720
    X65       CONSTR3   518
    X65       CONSTR4   342
    X65       CONSTR5   653
    X66       OBJ       880
    X66       CONSTR1   513
    X66       CONSTR2   309
    X66       CONSTR3   45
    X66       CONSTR4   949
    X66       CONSTR5   370
    X67       OBJ       938
    X67       CONSTR1   605
    X67       CONSTR2   288
    X67       CONSTR3   112
    X67       CONSTR4   732
    X67       CONSTR5   754
    X68       OBJ       444
    X68       CONSTR1   174
    X68       CONSTR2   89
    X68       CONSTR3   855
    X68       CONSTR4   277
    X68       CONSTR5   729
    X69       OBJ       717
    X69       CONSTR1   863
    X69       CONSTR2   251
    X69       CONSTR3   487
    X69       CONSTR4   846
    X69       CONSTR5   220
    X70       OBJ       798
    X70       CONSTR1   672
    X70       CONSTR2   427
    X70       CONSTR3   604
    X70       CONSTR4   511
    X70       CONSTR5   86
    X71       OBJ       577
    X71       CONSTR1   532
    X71       CONSTR2   487
    X71       CONSTR3   205
    X71       CONSTR4   343
    X71       CONSTR5   472
    X72       OBJ       656
    X72       CONSTR1   36
    X72       CONSTR2   51
    X72       CONSTR3   549
    X72       CONSTR4   213
    X72       CONSTR5   341
    X73       OBJ       1000
    X73       CONSTR1   775
    X73       CONSTR2   847
    X73       CONSTR3   277
    X73       CONSTR4   788
    X73       CONSTR5   708
    X74       OBJ       615
    X74       CONSTR1   737
    X74       CONSTR2   135
    X74       CONSTR3   715
    X74       CONSTR4   14
    X74       CONSTR5   572
    X75       OBJ       751
    X75       CONSTR1   104
    X75       CONSTR2   518
    X75       CONSTR3   219
    X75       CONSTR4   481
    X75       CONSTR5   388
    X76       OBJ       897
    X76       CONSTR1   605
    X76       CONSTR2   861
    X76       CONSTR3   460
    X76       CONSTR4   632
    X76       CONSTR5   498
    X77       OBJ       629
    X77       CONSTR1   685
    X77       CONSTR2   170
    X77       CONSTR3   530
    X77       CONSTR4   883
    X77       CONSTR5   181
    X78       OBJ       1016
    X78       CONSTR1   766
    X78       CONSTR2   870
    X78       CONSTR3   929
    X78       CONSTR4   166
    X78       CONSTR5   158
    X79       OBJ       1097
    X79       CONSTR1   959
    X79       CONSTR2   263
    X79       CONSTR3   817
    X79       CONSTR4   510
    X79       CONSTR5   482
    X80       OBJ       534
    X80       CONSTR1   725
    X80       CONSTR2   989
    X80       CONSTR3   97
    X80       CONSTR4   462
    X80       CONSTR5   296
    X81       OBJ       757
    X81       CONSTR1   917
    X81       CONSTR2   173
    X81       CONSTR3   302
    X81       CONSTR4   63
    X81       CONSTR5   385
    X82       OBJ       507
    X82       CONSTR1   209
    X82       CONSTR2   61
    X82       CONSTR3   502
    X82       CONSTR4   991
    X82       CONSTR5   235
    X83       OBJ       966
    X83       CONSTR1   330
    X83       CONSTR2   990
    X83       CONSTR3   814
    X83       CONSTR4   737
    X83       CONSTR5   187
    X84       OBJ       881
    X84       CONSTR1   313
    X84       CONSTR2   903
    X84       CONSTR3   810
    X84       CONSTR4   212
    X84       CONSTR5   213
    X85       OBJ       1026
    X85       CONSTR1   533
    X85       CONSTR2   957
    X85       CONSTR3   931
    X85       CONSTR4   911
    X85       CONSTR5   917
    X86       OBJ       877
    X86       CONSTR1   444
    X86       CONSTR2   874
    X86       CONSTR3   729
    X86       CONSTR4   702
    X86       CONSTR5   992
    X87       OBJ       956
    X87       CONSTR1   571
    X87       CONSTR2   980
    X87       CONSTR3   453
    X87       CONSTR4   353
    X87       CONSTR5   968
    X88       OBJ       735
    X88       CONSTR1   899
    X88       CONSTR2   535
    X88       CONSTR3   44
    X88       CONSTR4   984
    X88       CONSTR5   976
    X89       OBJ       836
    X89       CONSTR1   776
    X89       CONSTR2   339
    X89       CONSTR3   888
    X89       CONSTR4   593
    X89       CONSTR5   852
    X90       OBJ       674
    X90       CONSTR1   228
    X90       CONSTR2   683
    X90       CONSTR3   741
    X90       CONSTR4   566
    X90       CONSTR5   613
    X91       OBJ       1059
    X91       CONSTR1   967
    X91       CONSTR2   230
    X91       CONSTR3   874
    X91       CONSTR4   604
    X91       CONSTR5   701
    X92       OBJ       742
    X92       CONSTR1   317
    X92       CONSTR2   104
    X92       CONSTR3   650
    X92       CONSTR4   678
    X92       CONSTR5   14
    X93       OBJ       813
    X93       CONSTR1   621
    X93       CONSTR2   650
    X93       CONSTR3   13
    X93       CONSTR4   131
    X93       CONSTR5   715
    X94       OBJ       755
    X94       CONSTR1   661
    X94       CONSTR2   631
    X94       CONSTR3   803
    X94       CONSTR4   717
    X94       CONSTR5   344
    X95       OBJ       1064
    X95       CONSTR1   259
    X95       CONSTR2   647
    X95       CONSTR3   434
    X95       CONSTR4   876
    X95       CONSTR5   902
    X96       OBJ       495
    X96       CONSTR1   775
    X96       CONSTR2   178
    X96       CONSTR3   653
    X96       CONSTR4   743
    X96       CONSTR5   48
    X97       OBJ       1075
    X97       CONSTR1   702
    X97       CONSTR2   827
    X97       CONSTR3   371
    X97       CONSTR4   994
    X97       CONSTR5   244
    X98       OBJ       1177
    X98       CONSTR1   764
    X98       CONSTR2   597
    X98       CONSTR3   830
    X98       CONSTR4   662
    X98       CONSTR5   625
    X99       OBJ       938
    X99       CONSTR1   775
    X99       CONSTR2   258
    X99       CONSTR3   188
    X99       CONSTR4   523
    X99       CONSTR5   627
    X100      OBJ       680
    X100      CONSTR1   458
    X100      CONSTR2   862
    X100      CONSTR3   70
    X100      CONSTR4   718
    X100      CONSTR5   275
    INT0001   'MARKER'  'INTEND'
RHS
    RHS10001  CONSTR1   13114
    RHS10001  CONSTR2   12340
    RHS10001  CONSTR3   12947
    RHS10001  CONSTR4   13149
    RHS10001  CONSTR5   12994
BOUNDS
 BV BND       X1        .00
 BV BND       X2        .00
 BV BND       X3        .00
 BV BND       X4        .00
 BV BND       X5        .00
 BV BND       X6        .00
 BV BND       X7        .00
 BV BND       X8        .00
 BV BND       X9        .00
 BV BND       X10       .00
 BV BND       X11       .00
 BV BND       X12       .00
 BV BND       X13       .00
 BV BND       X14       .00
 BV BND       X15       .00
 BV BND       X16       .00
 BV BND       X17       .00
 BV BND       X18       .00
 BV BND       X19       .00
 BV BND       X20       .00
 BV BND       X21       .00
 BV BND       X22       .00
 BV BND       X23       .00
 BV BND       X24       .00
 BV BND       X25       .00
 BV BND       X26       .00
 BV BND       X27       .00
 BV BND       X28       .00
 BV BND       X29       .00
 BV BND       X30       .00
 BV BND       X31       .00
 BV BND       X32       .00
 BV BND       X33       .00
 BV BND       X34       .00
 BV BND       X35       .00
 BV BND       X36       .00
 BV BND       X37       .00
 BV BND       X38       .00
 BV BND       X39       .00
 BV BND       X40       .00
 BV BND       X41       .00
 BV BND       X42       .00
 BV BND       X43       .00
 BV BND       X44       .00
 BV BND       X45       .00
 BV BND       X46       .00
 BV BND       X47       .00
 BV BND       X48       .00
 BV BND       X49       .00
 BV BND       X50       .00
 BV BND       X51       .00
 BV BND       X52       .00
 BV BND       X53       .00
 BV BND       X54       .00
 BV BND       X55       .00
 BV BND       X56       .00
 BV BND       X57       .00
 BV BND       X58       .00
 BV BND       X59       .00
 BV BND       X60       .00
 BV BND       X61       .00
 BV BND       X62       .00
 BV BND       X63       .00
 BV BND       X64       .00
 BV BND       X65       .00
 BV BND       X66       .00
 BV BND       X67       .00
 BV BND       X68       .00
 BV BND       X69       .00
 BV BND       X70       .00
 BV BND       X71       .00
 BV BND       X72       .00
 BV BND       X73       .00
 BV BND       X74       .00
 BV BND       X75       .00
 BV BND       X76       .00
 BV BND       X77       .00
 BV BND       X78       .00
 BV BND       X79       .00
 BV BND       X80       .00
 BV BND       X81       .00
 BV BND       X82       .00
 BV BND       X83       .00
 BV BND       X84       .00
 BV BND       X85       .00
 BV BND       X86       .00
 BV BND       X87       .00
 BV BND       X88       .00
 BV BND       X89       .00
 BV BND       X90       .00
 BV BND       X91       .00
 BV BND       X92       .00
 BV BND       X93       .00
 BV BND       X94       .00
 BV BND       X95       .00
 BV BND       X96       .00
 BV BND       X97       .00
 BV BND       X98       .00
 BV BND       X99       .00
 BV BND       X100      .00
ENDATA
